
Gurobi 11.0.3 (linux64) logging started Thu Apr 16 14:14:19 2026

Set parameter LogFile to value "tree/results/fish/fish_depth-2_run-2/Full MIP/LogFile_FullModel.txt"
Gurobi Optimizer version 11.0.3 build v11.0.3rc0 (linux64 - "CentOS Linux 7 (Core)")

CPU model: Intel(R) Xeon(R) Platinum 8260 CPU @ 2.40GHz, instruction set [SSE2|AVX|AVX2|AVX512]
Thread count: 96 physical cores, 192 logical processors, using up to 32 threads

Optimize a model with 85760 rows, 73510 columns and 417804 nonzeros
Model fingerprint: 0x77c217f4
Model has 12240 general constraints
Variable types: 36754 continuous, 36756 integer (36756 binary)
Coefficient statistics:
  Matrix range     [3e-04, 1e+04]
  Objective range  [3e-04, 1e+04]
  Bounds range     [1e+00, 3e+03]
  RHS range        [1e-04, 3e+03]

User MIP start produced solution with objective -49799.5 (0.21s)
Loaded user MIP start with objective -49799.5

Presolve added 33947 rows and 35336 columns
Presolve time: 3.01s
Presolved: 119707 rows, 108846 columns, 510459 nonzeros
Presolved model has 13624 SOS constraint(s)
Variable types: 36754 continuous, 72092 integer (72092 binary)
Root relaxation presolved: 107467 rows, 96606 columns, 485979 nonzeros

Deterministic concurrent LP optimizer: primal simplex, dual simplex, and barrier
Showing barrier log only...

Root barrier log...

Ordering time: 0.02s

Barrier statistics:
 Dense cols : 12
 AA' NZ     : 4.220e+05
 Factor NZ  : 1.213e+06 (roughly 100 MB of memory)
 Factor Ops : 1.411e+07 (less than 1 second per iteration)
 Threads    : 30

                  Objective                Residual
Iter       Primal          Dual         Primal    Dual     Compl     Time
   0  -8.10581369e+07  4.55873466e+11  9.00e+03 5.61e+03  7.65e+07     4s
   1  -3.89520117e+07  4.80307936e+11  3.76e+03 1.16e-05  3.09e+07     4s
   2  -5.95251873e+06  3.89692773e+11  4.91e+02 8.24e-06  4.86e+06     5s
   3  -5.95251778e+05  1.63126158e+11  5.50e+01 1.94e-06  8.28e+05     5s
   4  -5.95250850e+04  2.65491037e+10  7.79e+00 4.75e-07  1.08e+05     5s
   5  -9.44331482e+03  4.81944934e+09  7.72e-01 9.05e-08  1.80e+04     5s
   6  -1.45461779e+03  5.31221735e+08  7.65e-02 3.35e-08  1.93e+03     5s
   7  -1.45377146e+02  5.31306014e+07  7.58e-03 5.50e-09  1.92e+02     6s
   8  -1.44530697e+01  5.31629183e+06  7.58e-04 4.92e-10  1.93e+01     6s
   9  -1.36049996e+00  5.34825809e+05  7.51e-05 3.45e-11  1.94e+00     6s
  10  -5.01180561e-02  5.66722896e+04  7.51e-06 2.92e-12  2.05e-01     6s
  11   9.79121781e-02  8.34384129e+03  7.44e-07 4.24e-13  3.02e-02     6s
  12   3.46457511e-01  1.44612003e+03  7.38e-08 1.46e-11  5.24e-03     7s
  13   5.08348338e-01  2.37496677e+02  1.62e-08 1.27e-14  8.58e-04     7s
  14   5.60922754e-01  4.20849098e+01  4.58e-09 2.18e-15  1.50e-04     7s
  15   5.82478659e-01  6.75229168e+00  8.18e-10 2.98e-16  2.23e-05     7s
  16   6.26494026e-01  2.34465480e+00  4.12e-10 4.71e-17  6.22e-06     7s
  17   7.20862391e-01  1.27073845e+00  2.01e-10 1.34e-17  1.99e-06     7s
  18   8.31075627e-01  9.84543386e-01  2.57e-11 1.46e-11  5.56e-07     7s
  19   8.44089233e-01  8.95900137e-01  3.52e-11 3.47e-18  1.88e-07     8s
  20   8.46563658e-01  8.70212969e-01  4.83e-11 3.47e-18  8.56e-08     8s
  21   8.47203844e-01  8.50614826e-01  7.53e-11 4.60e-18  1.24e-08     8s
  22   8.47336703e-01  8.47688699e-01  1.23e-10 1.46e-11  1.27e-09     8s
  23   8.47351605e-01  8.47387007e-01  1.22e-11 6.94e-18  1.28e-10     8s
  24   8.47353127e-01  8.47356669e-01  1.15e-12 1.59e-17  1.28e-11     9s
  25   8.47353279e-01  8.47353634e-01  4.16e-12 1.46e-11  1.28e-12     9s
  26   8.47353295e-01  8.47353330e-01  4.12e-13 4.84e-18  1.28e-13     9s
  27   8.47353296e-01  8.47353300e-01  5.68e-14 3.47e-18  1.28e-14     9s

Barrier solved model in 27 iterations and 9.45 seconds (5.73 work units)
Optimal objective 8.47353296e-01


Root crossover log...

    3192 DPushes remaining with DInf 0.0000000e+00                10s
    2256 DPushes remaining with DInf 0.0000000e+00                10s
       0 DPushes remaining with DInf 0.0000000e+00                12s

   40955 PPushes remaining with PInf 1.9120729e-04                12s
    7095 PPushes remaining with PInf 3.4572202e-06                15s
       0 PPushes remaining with PInf 0.0000000e+00                17s

  Push phase complete: Pinf 0.0000000e+00, Dinf 2.2222117e-20     17s


Root simplex log...

Iteration    Objective       Primal Inf.    Dual Inf.      Time
   43986    8.4735330e-01   0.000000e+00   1.288535e+00     17s
   44693    8.4735330e-01   0.000000e+00   1.801895e-01     20s
   45905    8.4735330e-01   0.000000e+00   1.123738e-01     25s
   47117    8.4735330e-01   0.000000e+00   4.832768e-03     30s
   48329    8.4735330e-01   0.000000e+00   1.276559e-02     35s
   49541    8.4735330e-01   0.000000e+00   1.094421e-01     40s
   50753    8.4735330e-01   0.000000e+00   1.326567e-01     45s
   51864    8.4735330e-01   0.000000e+00   4.544994e-02     50s
   53076    8.4735330e-01   0.000000e+00   2.285938e-05     55s
   53092    8.4735330e-01   0.000000e+00   0.000000e+00     55s
Concurrent spin time: 32.36s (can be avoided by choosing Method=3)

Solved with barrier
   53092    8.4735330e-01   0.000000e+00   0.000000e+00     88s

Root relaxation: objective 8.473533e-01, 53092 iterations, 83.96 seconds (79.64 work units)
Total elapsed time = 96.12s (DegenMoves)

    Nodes    |    Current Node    |     Objective Bounds      |     Work
 Expl Unexpl |  Obj  Depth IntInf | Incumbent    BestBd   Gap | It/Node Time

     0     0    0.84735    0 19088 -49799.538    0.84735   100%     -   96s
     0     2    0.84735    0 19088 -49799.538    0.84735   100%     - 1761s
     1     4    0.84419    1 19025 -49799.538    0.84419   100% 25353 1980s
     3     8    0.84028    2 18947 -49799.538    0.84028   100% 34281 2177s
     7    16    0.83466    3 18844 -49799.538    0.83466   100% 31409 2365s
    15    32    0.82835    4 18712 -49799.538    0.82835   100% 30567 3265s
    31    63    0.82082    5 18537 -49799.538    0.82082   100% 26273 3601s

Explored 62 nodes (1118956 simplex iterations) in 3601.86 seconds (3828.36 work units)
Thread count was 32 (of 192 available processors)

Solution count 1: -49799.5 

Time limit reached
Best objective -4.979953790850e+04, best bound 8.208186324472e-01, gap 100.0016%

User-callback calls 1143998, time in user-callback 5.72 sec
